1603073
49,58,15,62,20,37,66,6,42,45,33,54,25,65,10,63,40,24,29,5,22,48,18,59,28,4,39,55,31,0,11,41,2,60,23,46,53,12,64,19,3,47,1,44,26,16,8,57,14,35,7,67,34,50,38,61,36,52,43,9,17,56,32,51,13,21,30,27
